language Essence 1.3

letting pos be
        function((1, 1) --> 1, (1, 2) --> 3, (2, 1) --> 2, (2, 2) --> 5, (3, 1) --> 4, (3, 2) --> 8, (4, 1) --> 6,
                 (4, 2) --> 11, (5, 1) --> 20, (5, 2) --> 26, (6, 1) --> 18, (6, 2) --> 25, (7, 1) --> 21,
                 (7, 2) --> 29, (8, 1) --> 7, (8, 2) --> 16, (9, 1) --> 17, (9, 2) --> 27, (10, 1) --> 12,
                 (10, 2) --> 23, (11, 1) --> 19, (11, 2) --> 31, (12, 1) --> 9, (12, 2) --> 22, (13, 1) --> 10,
                 (13, 2) --> 24, (14, 1) --> 13, (14, 2) --> 28, (15, 1) --> 14, (15, 2) --> 30, (16, 1) --> 15,
                 (16, 2) --> 32)
letting seq be
        sequence(1, 2, 1, 3, 2, 4, 8, 3, 12, 13, 4, 10, 14, 15, 16, 8, 9, 6, 11, 5, 7, 12, 10, 13, 6, 5, 9, 14, 7, 15,
                 11, 16)
